# Objective value = 1.9533805617633016e+03
x[0] 0
x[1] 0
x[2] 1
x[3] 0
x[4] 1
x[5] 0
x[6] 0
x[7] 0
x[8] 0
x[9] 0
x[10] 0
x[11] 1
x[12] 1
x[13] 0
x[14] 0
x[15] 1
x[16] 1
x[17] 1
x[18] 1
x[19] 0
x[20] 1
x[21] 1
x[22] 0
x[23] 0
x[24] 0
x[25] 1
x[26] 1
x[27] 0
x[28] 1
x[29] 1
x[30] 0
x[31] 1
x[32] 1
x[33] 1
x[34] 1
x[35] 0
x[36] 0
x[37] 1
x[38] 1
x[39] 1
x[40] 1
x[41] 1
x[42] 1
x[43] 0
x[44] 1
x[45] 1
x[46] 0
x[47] 0
x[48] 0
x[49] 1
x[50] 0
x[51] 1
x[52] 1
x[53] 1
x[54] 1
x[55] 0
x[56] 1
x[57] 1
x[58] 1
x[59] 0
x[60] 0
x[61] 1
x[62] 1
x[63] 1
x[64] 1
x[65] 0
x[66] 1
x[67] 0
x[68] 1
x[69] 1
x[70] 0
x[71] 0
x[72] 1
x[73] 1
x[74] 0
x[75] 1
x[76] 1
x[77] 1
x[78] 1
x[79] 1
x[80] 0
x[81] 1
x[82] 1
x[83] 1
x[84] 1
x[85] 0
x[86] 0
x[87] 1
x[88] 1
x[89] 0
x[90] 1
x[91] 0
x[92] 1
x[93] 1
x[94] 0
x[95] 1
x[96] 0
x[97] 1
x[98] 0
x[99] 0
x[100] 1
x[101] 1
x[102] 1
x[103] 0
x[104] 1
x[105] 0
x[106] 0
x[107] 1
x[108] 1
x[109] 1
x[110] 1
x[111] 0
x[112] 0
x[113] 1
x[114] 0
x[115] 0
x[116] 1
x[117] 1
x[118] 0
x[119] 1
x[120] 0
x[121] 1
x[122] 1
x[123] 1
x[124] 1
x[125] 0
x[126] 1
x[127] 0
x[128] 1
x[129] 1
x[130] 1
x[131] 1
x[132] 1
x[133] 1
x[134] 1
x[135] 0
x[136] 1
x[137] 1
x[138] 1
x[139] 0
x[140] 0
x[141] 1
x[142] 1
x[143] 0
x[144] 1
x[145] 1
x[146] 1
x[147] 0
x[148] 0
x[149] 1
x[150] 1
x[151] 0
x[152] 1
x[153] 0
x[154] 1
x[155] 0
x[156] 0
x[157] 0
x[158] 1
x[159] 0
x[160] 1
x[161] 1
x[162] 0
x[163] 0
x[164] 1
x[165] 0
x[166] 1
x[167] 1
x[168] 1
x[169] 0
x[170] 1
x[171] 1
x[172] 0
x[173] 1
x[174] 0
x[175] 0
x[176] 0
x[177] 0
x[178] 1
x[179] 0
x[180] 1
x[181] 0
x[182] 1
x[183] 0
x[184] 1
x[185] 1
x[186] 1
x[187] 1
x[188] 1
x[189] 0
x[190] 1
x[191] 1
x[192] 0
x[193] 0
x[194] 0
x[195] 0
x[196] 1
x[197] 1
x[198] 0
x[199] 0
x[200] 0
x[201] 0
x[202] 0
x[203] 0
x[204] 0
x[205] 1
x[206] 1
x[207] 1
x[208] 1
x[209] 1
x[210] 0
x[211] 1
x[212] 1
x[213] 1
x[214] 0
x[215] 1
x[216] 1
x[217] 0
x[218] 1
x[219] 0
x[220] 0
x[221] 0
x[222] 1
x[223] 0
x[224] 0
x[225] 1
x[226] 1
x[227] 0
x[228] 1
x[229] 0
x[230] 0
x[231] 1
x[232] 0
x[233] 0
x[234] 0
x[235] 1
x[236] 1
x[237] 0
x[238] 1
x[239] 0
x[240] 0
x[241] 0
x[242] 0
x[243] 1
x[244] 0
x[245] 0
x[246] 0
x[247] 0
x[248] 0
x[249] 0
x[250] 0
x[251] 1
x[252] 1
x[253] 0
x[254] 1
x[255] 0
x[256] 0
x[257] 0
x[258] 1
x[259] 1
x[260] 1
x[261] 1
x[262] 1
x[263] 1
x[264] 1
x[265] 1
x[266] 1
x[267] 1
x[268] 1
x[269] 1
x[270] 1
x[271] 0
x[272] 1
x[273] 0
x[274] 1
x[275] 1
x[276] 0
x[277] 1
x[278] 0
x[279] 1
x[280] 1
x[281] 0
x[282] 0
x[283] 0
x[284] 0
x[285] 0
x[286] 1
x[287] 1
x[288] 1
x[289] 1
x[290] 0
x[291] 1
x[292] 1
x[293] 0
x[294] 1
x[295] 1
x[296] 0
x[297] 0
x[298] 0
x[299] 1
x[300] 0
x[301] 0
x[302] 1
x[303] 1
x[304] 1
x[305] 1
x[306] 0
x[307] 1
x[308] 0
x[309] 0
x[310] 1
x[311] 1
x[312] 0
x[313] 0
x[314] 0
x[315] 1
x[316] 1
x[317] 0
x[318] 1
x[319] 1
x[320] 0
x[321] 0
x[322] 1
x[323] 1
x[324] 1
x[325] 0
x[326] 1
x[327] 1
x[328] 1
x[329] 1
x[330] 0
x[331] 1
x[332] 0
x[333] 1
x[334] 1
x[335] 1
x[336] 0
x[337] 1
x[338] 1
x[339] 0
x[340] 0
x[341] 0
x[342] 1
x[343] 1
x[344] 1
x[345] 0
x[346] 0
x[347] 0
x[348] 1
x[349] 1
x[350] 1
x[351] 1
x[352] 1
x[353] 1
x[354] 1
x[355] 0
x[356] 1
x[357] 1
x[358] 1
x[359] 1
x[360] 1
x[361] 0
x[362] 0
x[363] 1
x[364] 1
x[365] 0
x[366] 0
x[367] 0
x[368] 1
x[369] 1
x[370] 0
x[371] 1
x[372] 1
x[373] 0
x[374] 0
x[375] 0
x[376] 1
x[377] 1
x[378] 1
x[379] 0
x[380] 0
x[381] 0
x[382] 0
x[383] 0
x[384] 1
x[385] 1
x[386] 0
x[387] 1
x[388] 1
x[389] 0
x[390] 0
x[391] 0
x[392] 0
x[393] 1
x[394] 0
x[395] 1
x[396] 1
x[397] 0
x[398] 0
x[399] 1
x[400] 1
x[401] 1
x[402] 1
x[403] 1
x[404] 1
x[405] 1
x[406] 1
x[407] 0
x[408] 1
x[409] 0
x[410] 1
x[411] 1
x[412] 0
x[413] 1
x[414] 1
x[415] 1
x[416] 0
x[417] 0
x[418] 0
x[419] 1
x[420] 0
x[421] 1
x[422] 0
x[423] 0
x[424] 0
x[425] 1
x[426] 0
x[427] 0
x[428] 0
x[429] 1
x[430] 1
x[431] 1
x[432] 1
x[433] 0
x[434] 0
x[435] 0
x[436] 0
x[437] 1
x[438] 1
x[439] 0
x[440] 1
x[441] 0
x[442] 1
x[443] 1
x[444] 1
x[445] 0
x[446] 0
x[447] 1
x[448] 1
x[449] 1
x[450] 1
x[451] 0
x[452] 0
x[453] 0
x[454] 1
x[455] 1
x[456] 0
x[457] 1
x[458] 1
x[459] 0
x[460] 1
x[461] 0
x[462] 1
x[463] 1
x[464] 1
x[465] 1
x[466] 1
x[467] 1
x[468] 1
x[469] 0
x[470] 1
x[471] 1
x[472] 1
x[473] 0
x[474] 1
x[475] 0
x[476] 1
x[477] 0
x[478] 0
x[479] 1
x[480] 1
x[481] 0
x[482] 0
x[483] 1
x[484] 1
x[485] 0
x[486] 1
x[487] 0
x[488] 1
x[489] 0
x[490] 0
x[491] 0
x[492] 1
x[493] 0
x[494] 0
x[495] 0
x[496] 0
x[497] 0
x[498] 0
x[499] 0
x[500] 1
x[501] 0
x[502] 1
x[503] 1
x[504] 1
x[505] 0
x[506] 0
x[507] 1
x[508] 1
x[509] 1
x[510] 1
x[511] 1
x[512] 1
x[513] 1
x[514] 1
x[515] 1
x[516] 0
x[517] 1
x[518] 0
x[519] 1
x[520] 1
x[521] 0
x[522] 1
x[523] 0
x[524] 1
x[525] 1
x[526] 1
x[527] 1
x[528] 1
x[529] 1
x[530] 1
x[531] 1
x[532] 1
x[533] 1
x[534] 0
x[535] 1
x[536] 0
x[537] 0
x[538] 0
x[539] 1
x[540] 0
x[541] 0
x[542] 1
x[543] 1
x[544] 0
x[545] 0
x[546] 1
x[547] 1
x[548] 1
x[549] 0
x[550] 0
x[551] 1
x[552] 0
x[553] 0
x[554] 0
x[555] 0
x[556] 1
x[557] 1
x[558] 0
x[559] 0
x[560] 1
x[561] 0
x[562] 1
x[563] 0
x[564] 0
x[565] 0
x[566] 1
x[567] 0
x[568] 1
x[569] 0
x[570] 0
x[571] 0
x[572] 1
x[573] 0
x[574] 1
x[575] 1
x[576] 0
x[577] 0
x[578] 0
x[579] 1
x[580] 1
x[581] 1
x[582] 1
x[583] 1
x[584] 1
x[585] 1
x[586] 1
x[587] 0
x[588] 1
x[589] 0
x[590] 1
x[591] 0
x[592] 1
x[593] 0
x[594] 0
x[595] 0
x[596] 1
x[597] 1
x[598] 0
x[599] 1
x[600] 0
x[601] 0
x[602] 1
x[603] 0
x[604] 1
x[605] 1
x[606] 0
x[607] 1
x[608] 0
x[609] 1
x[610] 1
x[611] 0
x[612] 0
x[613] 1
x[614] 0
x[615] 0
x[616] 1
x[617] 1
x[618] 0
x[619] 0
x[620] 0
x[621] 0
x[622] 1
x[623] 0
x[624] 1
x[625] 1
x[626] 0
x[627] 1
x[628] 0
x[629] 0
x[630] 0
x[631] 0
x[632] 0
x[633] 1
x[634] 0
x[635] 1
x[636] 1
x[637] 1
x[638] 0
x[639] 1
x[640] 1
x[641] 0
x[642] 1
x[643] 1
x[644] 0
x[645] 1
x[646] 1
x[647] 1
x[648] 1
x[649] 1
x[650] 0
x[651] 1
x[652] 1
x[653] 0
x[654] 1
x[655] 1
x[656] 0
x[657] 0
x[658] 0
x[659] 1
x[660] 1
x[661] 1
x[662] 0
x[663] 1
x[664] 0
x[665] 1
x[666] 1
x[667] 1
x[668] 0
x[669] 0
x[670] 1
x[671] 1
x[672] 1
x[673] 1
x[674] 1
x[675] 0
x[676] 1
x[677] 0
x[678] 1
x[679] 0
x[680] 0
x[681] 1
x[682] 1
x[683] 1
x[684] 0
x[685] 1
x[686] 0
x[687] 0
x[688] 0
x[689] 1
x[690] 0
x[691] 1
x[692] 1
x[693] 1
x[694] 0
x[695] 1
x[696] 1
x[697] 1
x[698] 1
x[699] 0
x[700] 0
x[701] 1
x[702] 0
x[703] 0
x[704] 0
x[705] 1
x[706] 0
x[707] 1
x[708] 0
x[709] 1
x[710] 1
x[711] 1
x[712] 0
x[713] 1
x[714] 0
x[715] 1
x[716] 1
x[717] 1
x[718] 1
x[719] 1
x[720] 1
x[721] 1
x[722] 0
x[723] 1
x[724] 1
x[725] 0
x[726] 1
x[727] 1
x[728] 0
x[729] 0
x[730] 0
x[731] 1
x[732] 0
x[733] 1
x[734] 1
x[735] 1
x[736] 1
x[737] 1
x[738] 0
x[739] 1
x[740] 0
x[741] 1
x[742] 1
x[743] 1
x[744] 1
x[745] 1
x[746] 1
x[747] 1
x[748] 1
x[749] 1
x[750] 1
x[751] 1
x[752] 1
x[753] 1
x[754] 0
x[755] 1
x[756] 1
x[757] 1
x[758] 1
x[759] 0
x[760] 0
x[761] 0
x[762] 0
x[763] 1
x[764] 0
x[765] 1
x[766] 1
x[767] 0
x[768] 1
x[769] 1
x[770] 1
x[771] 1
x[772] 1
x[773] 1
x[774] 1
x[775] 0
x[776] 1
x[777] 0
x[778] 0
x[779] 1
x[780] 1
x[781] 1
x[782] 1
x[783] 0
x[784] 0
x[785] 1
x[786] 1
x[787] 1
x[788] 0
x[789] 0
x[790] 0
x[791] 0
x[792] 0
x[793] 0
x[794] 1
x[795] 0
x[796] 1
x[797] 1
x[798] 0
x[799] 1
x[800] 1
x[801] 0
x[802] 0
x[803] 1
x[804] 1
x[805] 1
x[806] 0
x[807] 1
x[808] 1
x[809] 0
x[810] 1
x[811] 1
x[812] 1
x[813] 1
x[814] 1
x[815] 1
x[816] 0
x[817] 0
x[818] 1
x[819] 1
x[820] 0
x[821] 0
x[822] 0
x[823] 0
x[824] 0
x[825] 1
x[826] 1
x[827] 0
x[828] 0
x[829] 1
x[830] 1
x[831] 0
x[832] 1
x[833] 0
x[834] 1
x[835] 0
x[836] 0
x[837] 1
x[838] 0
x[839] 1
x[840] 1
x[841] 1
x[842] 1
x[843] 1
x[844] 0
x[845] 0
x[846] 0
x[847] 1
x[848] 1
x[849] 1
x[850] 1
x[851] 1
x[852] 0
x[853] 1
x[854] 0
x[855] 0
x[856] 0
x[857] 1
x[858] 1
x[859] 0
x[860] 1
x[861] 0
x[862] 0
x[863] 1
x[864] 0
x[865] 1
x[866] 1
x[867] 0
x[868] 0
x[869] 1
x[870] 1
x[871] 1
x[872] 0
x[873] 1
x[874] 0
x[875] 1
x[876] 0
x[877] 0
x[878] 0
x[879] 1
x[880] 1
x[881] 1
x[882] 0
x[883] 0
x[884] 0
x[885] 1
x[886] 1
x[887] 1
x[888] 0
x[889] 0
x[890] 1
x[891] 1
x[892] 0
x[893] 0
x[894] 0
x[895] 1
x[896] 1
x[897] 1
x[898] 0
x[899] 1
x[900] 1
x[901] 1
x[902] 1
x[903] 1
x[904] 0
x[905] 0
x[906] 0
x[907] 0
x[908] 0
x[909] 0
x[910] 1
x[911] 1
x[912] 1
x[913] 1
x[914] 0
x[915] 0
x[916] 1
x[917] 0
x[918] 1
x[919] 0
x[920] 1
x[921] 1
x[922] 1
x[923] 0
x[924] 1
x[925] 0
x[926] 1
x[927] 0
x[928] 1
x[929] 1
x[930] 0
x[931] 1
x[932] 1
x[933] 1
x[934] 0
x[935] 1
x[936] 1
x[937] 1
x[938] 1
x[939] 1
x[940] 0
x[941] 0
x[942] 1
x[943] 0
x[944] 1
x[945] 1
x[946] 0
x[947] 0
x[948] 0
x[949] 0
x[950] 1
x[951] 1
x[952] 0
x[953] 1
x[954] 1
x[955] 1
x[956] 1
x[957] 0
x[958] 0
x[959] 0
x[960] 0
x[961] 0
x[962] 0
x[963] 1
x[964] 1
x[965] 1
x[966] 1
x[967] 0
x[968] 0
x[969] 0
x[970] 1
x[971] 1
x[972] 0
x[973] 1
x[974] 0
x[975] 1
x[976] 1
x[977] 1
x[978] 1
x[979] 1
x[980] 0
x[981] 1
x[982] 0
x[983] 1
x[984] 0
x[985] 0
x[986] 0
x[987] 1
x[988] 1
x[989] 0
x[990] 1
x[991] 1
x[992] 0
x[993] 0
x[994] 0
x[995] 1
x[996] 0
x[997] 1
x[998] 0
x[999] 1
